33D32945 STP File, STP Format Version 1.0

SECTION Comments
Name "edge_n13_d4_s29"
Problem "Euclidean Steiner Tree Problem"
Remark "Generated with STPGenerator. 4 dimensions."
END

SECTION Graph
Nodes 13
END

SECTION Coordinates
DDDD 0 0.8759893737 0.8759893737 0.8759893737 0.8759893737
DDDD 1 0.4619202984 0.4619202984 0.4619202984 0.4619202984
DDDD 2 0.7565934233 0.7565934233 0.7565934233 0.7565934233
DDDD 3 0.2626699606 0.2626699606 0.2626699606 0.2626699606
DDDD 4 0.5662877856 0.5662877856 0.5662877856 0.5662877856
DDDD 5 0.3799464867 0.3799464867 0.3799464867 0.3799464867
DDDD 6 0.4450082292 0.4450082292 0.4450082292 0.4450082292
DDDD 7 0.5312397017 0.5312397017 0.5312397017 0.5312397017
DDDD 8 0.8309675659 0.8309675659 0.8309675659 0.8309675659
DDDD 9 0.9260082347 0.9260082347 0.9260082347 0.9260082347
DDDD 10 0.7454492528 0.7454492528 0.7454492528 0.7454492528
DDDD 11 0.1616497483 0.1616497483 0.1616497483 0.1616497483
DDDD 12 0.1027180125 0.1027180125 0.1027180125 0.1027180125
END
